NAME          ClpDefau  FREE
ROWS
 N  OBJROW
 L  ZMUNI1_PCT
 L  ZMUNI2_PCT
 L  ZMUNI3_PCT
 L  ZMUNI4_PCT
 L  ZMUNI5_PCT
 L  ZMUNI6_PCT
 L  ZMUNI7_PCT
 L  ZMUNI8_PCT
 L  ZMUNI9_PCT
COLUMNS
    QMUNI1 OBJROW 1.          
    QMUNI1 ZMUNI1_PCT 30499.2675  
    QMUNI1 ZMUNI2_PCT 1759.5291   
    QMUNI1 ZMUNI3_PCT 4210.6629   
    QMUNI1 ZMUNI4_PCT 3113.7466   
    QMUNI1 ZMUNI5_PCT 36.4304     
    QMUNI1 ZMUNI6_PCT 192.833     
    QMUNI1 ZMUNI7_PCT 1798.6298   
    QMUNI1 ZMUNI8_PCT 1223.3734   
    QMUNI1 ZMUNI9_PCT 330.7343    
    QMUNI2 OBJROW 1.          
    QMUNI2 ZMUNI1_PCT 1582.5271   
    QMUNI2 ZMUNI2_PCT 36246.2997  
    QMUNI2 ZMUNI3_PCT 2393.5318   
    QMUNI2 ZMUNI4_PCT 2607.9177   
    QMUNI2 ZMUNI5_PCT  -95.7489   
    QMUNI2 ZMUNI6_PCT  -66.9479   
    QMUNI2 ZMUNI7_PCT 755.3101    
    QMUNI2 ZMUNI8_PCT 970.8405    
    QMUNI2 ZMUNI9_PCT 907.135     
    QMUNI3 OBJROW 1.          
    QMUNI3 ZMUNI1_PCT 4619.4076   
    QMUNI3 ZMUNI2_PCT 3087.0437   
    QMUNI3 ZMUNI3_PCT 32276.7258  
    QMUNI3 ZMUNI4_PCT 5540.8477   
    QMUNI3 ZMUNI5_PCT 747.2992    
    QMUNI3 ZMUNI6_PCT 835.0373    
    QMUNI3 ZMUNI7_PCT 2743.1488   
    QMUNI3 ZMUNI8_PCT 2373.1232   
    QMUNI3 ZMUNI9_PCT 1749.9924   
    QMUNI4 OBJROW 1.          
    QMUNI4 ZMUNI1_PCT 2927.9708   
    QMUNI4 ZMUNI2_PCT 2603.3401   
    QMUNI4 ZMUNI3_PCT 5105.4001   
    QMUNI4 ZMUNI4_PCT 114118.1945 
    QMUNI4 ZMUNI5_PCT 29.5639     
    QMUNI4 ZMUNI6_PCT 53.5965     
    QMUNI4 ZMUNI7_PCT 692.3675    
    QMUNI4 ZMUNI8_PCT 512.3138    
    QMUNI4 ZMUNI9_PCT  -296.9741  
    QMUNI5 OBJROW 1.          
    QMUNI5 ZMUNI1_PCT  -23.6512   
    QMUNI5 ZMUNI2_PCT  -236.702   
    QMUNI5 ZMUNI3_PCT  -105.0949  
    QMUNI5 ZMUNI4_PCT  -107.193   
    QMUNI5 ZMUNI5_PCT 38843.5364  
    QMUNI5 ZMUNI6_PCT 2805.9006   
    QMUNI5 ZMUNI7_PCT  -210.1898  
    QMUNI5 ZMUNI8_PCT  -418.0908  
    QMUNI5 ZMUNI9_PCT  -694.8471  
    QMUNI6 OBJROW 1.          
    QMUNI6 ZMUNI1_PCT  -49.0189   
    QMUNI6 ZMUNI2_PCT  -328.6362  
    QMUNI6 ZMUNI3_PCT  -163.4597  
    QMUNI6 ZMUNI4_PCT  -169.9448  
    QMUNI6 ZMUNI5_PCT 2958.6792   
    QMUNI6 ZMUNI6_PCT 34895.134   
    QMUNI6 ZMUNI7_PCT  -326.9196  
    QMUNI6 ZMUNI8_PCT  -638.9618  
    QMUNI6 ZMUNI9_PCT  -940.3228  
    QMUNI7 OBJROW 1.          
    QMUNI7 ZMUNI1_PCT 1187.3245   
    QMUNI7 ZMUNI2_PCT 464.2486    
    QMUNI7 ZMUNI3_PCT 960.3501    
    QMUNI7 ZMUNI4_PCT 696.3729    
    QMUNI7 ZMUNI5_PCT 290.68      
    QMUNI7 ZMUNI6_PCT 412.1781    
    QMUNI7 ZMUNI7_PCT 37697.2198  
    QMUNI7 ZMUNI8_PCT 2018.7378   
    QMUNI7 ZMUNI9_PCT 9.3459999999
    QMUNI8 OBJROW 1.          
    QMUNI8 ZMUNI1_PCT 726.6998    
    QMUNI8 ZMUNI2_PCT 540.3518    
    QMUNI8 ZMUNI3_PCT 729.1794    
    QMUNI8 ZMUNI4_PCT 530.8151    
    QMUNI8 ZMUNI5_PCT  -212.6693  
    QMUNI8 ZMUNI6_PCT  -150.4898  
    QMUNI8 ZMUNI7_PCT 2073.288    
    QMUNI8 ZMUNI8_PCT 31164.1693  
    QMUNI8 ZMUNI9_PCT 499.5346    
    QMUNI9 OBJROW 1.          
    QMUNI9 ZMUNI1_PCT 215.1489    
    QMUNI9 ZMUNI2_PCT 564.5752    
    QMUNI9 ZMUNI3_PCT 298.5001    
    QMUNI9 ZMUNI4_PCT 265.3122    
    QMUNI9 ZMUNI5_PCT  -70.1904   
    QMUNI9 ZMUNI6_PCT  -102.6153  
    QMUNI9 ZMUNI7_PCT 194.1681    
    QMUNI9 ZMUNI8_PCT 780.4871    
    QMUNI9 ZMUNI9_PCT 29673.7671  
RHS
    RHS ZMUNI1_PCT  -0.69257594
    RHS ZMUNI2_PCT -0.043365131
    RHS ZMUNI3_PCT  -0.22725678
    RHS ZMUNI4_PCT 1.177289079 
    RHS ZMUNI5_PCT 0.3158342736
    RHS ZMUNI6_PCT  -0.12004646
    RHS ZMUNI7_PCT 0.1900695572
    RHS ZMUNI8_PCT  -0.14699607
    RHS ZMUNI9_PCT  -0.37497496
BOUNDS
 LO BOUND QMUNI1 -0.000568654
 UP BOUND QMUNI1      1.1e+10
 LO BOUND QMUNI2 -0.000401301
 UP BOUND QMUNI2      1.1e+10
 LO BOUND QMUNI3 -0.000471711
 UP BOUND QMUNI3      1.1e+10
 LO BOUND QMUNI4 -0.000164806
 UP BOUND QMUNI4      1.1e+10
 LO BOUND QMUNI5 -0.000274891
 UP BOUND QMUNI5      1.1e+10
 LO BOUND QMUNI6 -0.00040926 
 UP BOUND QMUNI6      1.1e+10
 LO BOUND QMUNI7  -5.38086e-5
 UP BOUND QMUNI7      1.1e+10
 LO BOUND QMUNI8 -0.000216144
 UP BOUND QMUNI8      1.1e+10
 LO BOUND QMUNI9 -0.000239552
 UP BOUND QMUNI9      1.1e+10
ENDATA
